Route #1: 2 34 48 40 7 37 9 33 12 27
Route #2: 30 20 36 43 11 16 24 49
Route #3: 25 47 26 18 4
Route #4: 5 32
Route #5: 19 29 28 42 17
Route #6: 8 21 1 39 45
Route #7: 3 46 23 41 35 10 15
Route #8: 13 38 22 14 31 6 44
Cost 1370